SDVRP instances/custom_instances/p03_1_split0.vrp
NAME:p03_1_split
BEST_KNOWN: 0
COMMENT: 0
DIMENSION: 427
CAPACITY: 200
EDGE_WEIGHT_FORMAT: FUNCTION
EDGE_WEIGHT_TYPE: EXACT_2D
NODE_COORD_SECTION
1 0.00000 0.00000
2 -23 -22
3 -23 -22
4 -23 -22
5 -23 -22
6 45 -23
7 45 -23
8 45 -23
9 45 -23
10 19 -16
11 19 -16
12 19 -16
13 19 -16
14 19 -16
15 19 -16
16 19 -16
17 -46 16
18 -46 16
19 -46 16
20 46 46
21 46 46
22 46 46
23 46 46
24 -46 -47
25 -46 -47
26 -17 32
27 -17 32
28 -17 32
29 -17 32
30 -17 32
31 -17 32
32 25 -18
33 25 -18
34 13 -6
35 13 -6
36 13 -6
37 37 -5
38 37 -5
39 37 -5
40 37 -5
41 37 -5
42 37 -45
43 37 -45
44 37 -45
45 37 -45
46 37 -45
47 37 -45
48 37 -45
49 -37 -23
50 -37 -23
51 -37 -23
52 -37 -23
53 -37 -23
54 25 -5
55 25 -5
56 25 -5
57 -14 -40
58 -14 -40
59 -14 -40
60 -14 -40
61 44 4
62 44 4
63 44 4
64 28 -23
65 28 -23
66 28 -23
67 28 -23
68 28 -23
69 28 -23
70 -20 -15
71 -20 -15
72 -20 -15
73 -20 -15
74 -20 -15
75 -20 -15
76 -19 -22
77 -19 -22
78 -19 -22
79 -19 -22
80 -19 -22
81 -35 16
82 -35 16
83 -35 16
84 -35 16
85 -35 16
86 30 41
87 30 41
88 30 41
89 30 41
90 30 41
91 35 -46
92 35 -46
93 35 -46
94 35 -46
95 25 -41
96 25 -41
97 25 -41
98 25 -41
99 25 -41
100 3 41
101 3 41
102 3 41
103 -24 10
104 -24 10
105 -24 10
106 -24 10
107 -24 10
108 -24 10
109 6 34
110 6 34
111 6 34
112 6 34
113 6 34
114 6 34
115 -23 -38
116 -23 -38
117 -23 -38
118 -23 -38
119 13 35
120 13 35
121 13 35
122 13 35
123 13 35
124 43 18
125 43 18
126 43 18
127 43 18
128 5 -45
129 5 -45
130 5 -45
131 5 -45
132 -10 -24
133 -10 -24
134 -10 -24
135 -10 -24
136 -10 -24
137 -10 -24
138 -17 49
139 -17 49
140 -17 49
141 -17 49
142 -22 -14
143 -22 -14
144 1 11
145 1 11
146 -21 -14
147 -21 -14
148 -15 -46
149 -15 -46
150 -15 -46
151 -15 -46
152 -15 -46
153 36 3
154 36 3
155 36 3
156 36 3
157 36 3
158 36 3
159 36 3
160 1 -20
161 1 -20
162 1 -20
163 1 -20
164 1 -20
165 1 -20
166 1 -20
167 -5 -39
168 -5 -39
169 -5 -39
170 -5 -39
171 -5 -39
172 -4 6
173 -4 6
174 -4 6
175 -47 -41
176 -47 -41
177 -49 8
178 -49 8
179 -49 8
180 -42 -16
181 -42 -16
182 -42 -16
183 -42 -16
184 -42 -16
185 -46 49
186 -46 49
187 -46 49
188 40 -22
189 40 -22
190 40 -22
191 40 -22
192 -6 -11
193 -6 -11
194 -6 -11
195 -6 -11
196 -6 -11
197 3 26
198 3 26
199 3 26
200 3 26
201 8 -11
202 8 -11
203 8 -11
204 8 -11
205 -49 -22
206 -49 -22
207 -49 -22
208 -49 -22
209 40 25
210 40 25
211 40 25
212 40 25
213 40 25
214 -27 4
215 -27 4
216 -27 4
217 -27 4
218 -27 4
219 -27 4
220 29 -15
221 29 -15
222 29 -15
223 29 -15
224 29 -15
225 19 0
226 19 0
227 19 0
228 19 0
229 0 22
230 0 22
231 0 22
232 0 22
233 0 22
234 24 -9
235 24 -9
236 24 -9
237 24 -9
238 -46 19
239 -46 19
240 -46 19
241 -46 19
242 -46 19
243 -46 19
244 -46 19
245 -46 19
246 -18 10
247 -18 10
248 -18 10
249 -18 10
250 -4 3
251 -4 3
252 -25 8
253 -25 8
254 -25 8
255 -25 8
256 -21 26
257 -21 26
258 -21 26
259 -21 26
260 3 23
261 3 23
262 19 -26
263 -7 21
264 -7 21
265 -7 21
266 -7 21
267 -7 21
268 28 34
269 28 34
270 28 34
271 28 34
272 28 34
273 25 -25
274 25 -25
275 25 -25
276 25 -25
277 25 -25
278 25 -25
279 32 50
280 32 50
281 32 50
282 32 50
283 32 50
284 -10 0
285 -10 0
286 -10 0
287 40 22
288 10 -10
289 10 -10
290 10 -10
291 10 -10
292 -42 43
293 -42 43
294 -42 43
295 -42 43
296 -42 43
297 -42 43
298 -42 43
299 -20 23
300 -20 23
301 -20 23
302 -20 23
303 -20 23
304 9 15
305 9 15
306 9 15
307 9 15
308 -25 -4
309 -25 -3
310 -25 -3
311 -25 -3
312 -9 -25
313 -33 29
314 -33 29
315 -33 29
316 -12 -27
317 -12 -27
318 -12 -27
319 -12 -27
320 -12 -27
321 7 23
322 7 23
323 7 23
324 7 23
325 7 23
326 7 23
327 48 -8
328 48 -8
329 48 -8
330 48 -8
331 48 -8
332 48 -8
333 10 30
334 10 30
335 10 30
336 46 -41
337 46 -41
338 46 -41
339 46 -41
340 46 -41
341 46 -41
342 46 -41
343 -15 32
344 -15 32
345 -15 32
346 -42 20
347 -42 20
348 -42 20
349 -42 20
350 25 -24
351 25 -24
352 25 -24
353 25 -24
354 25 -24
355 24 13
356 24 13
357 2 -17
358 2 -17
359 2 -17
360 2 -17
361 2 -17
362 -6 39
363 -6 39
364 -6 39
365 -6 39
366 -6 39
367 -6 39
368 -32 -8
369 -32 -8
370 -32 -8
371 -32 -8
372 -32 -8
373 -32 -8
374 26 46
375 26 46
376 0 -5
377 0 -5
378 0 -5
379 0 -5
380 0 -5
381 0 -5
382 -38 44
383 -38 44
384 -38 44
385 -38 44
386 24 8
387 24 8
388 -29 -15
389 -29 -15
390 -29 -15
391 -29 -15
392 -29 -15
393 -21 -26
394 -21 -26
395 -21 -26
396 -21 -26
397 -21 -26
398 12 39
399 12 39
400 12 39
401 12 39
402 12 39
403 46 23
404 46 23
405 46 23
406 46 23
407 46 23
408 46 23
409 6 26
410 6 26
411 6 26
412 27 -9
413 27 -9
414 27 -9
415 27 -9
416 45 -25
417 45 -25
418 45 -25
419 8 46
420 8 46
421 8 46
422 8 46
423 8 46
424 -47 27
425 -47 27
426 -47 27
427 -47 27
DEMAND_SECTION
1 0
2 20
3 2
4 2
5 2
6 20
7 10
8 2
9 1
10 40
11 20
12 2
13 2
14 2
15 2
16 1
17 40
18 40
19 2
20 40
21 10
22 2
23 2
24 40
25 1
26 40
27 20
28 10
29 2
30 2
31 2
32 20
33 10
34 40
35 10
36 1
37 40
38 2
39 2
40 2
41 2
42 40
43 40
44 2
45 2
46 2
47 2
48 1
49 40
50 20
51 2
52 2
53 2
54 40
55 20
56 10
57 20
58 10
59 2
60 2
61 40
62 10
63 1
64 40
65 20
66 10
67 2
68 2
69 1
70 20
71 2
72 2
73 2
74 2
75 1
76 40
77 40
78 2
79 2
80 2
81 40
82 20
83 10
84 2
85 1
86 40
87 40
88 10
89 2
90 2
91 40
92 20
93 2
94 2
95 20
96 2
97 2
98 2
99 2
100 40
101 10
102 2
103 40
104 10
105 2
106 2
107 2
108 2
109 40
110 40
111 2
112 2
113 2
114 1
115 40
116 20
117 10
118 1
119 40
120 2
121 2
122 2
123 1
124 40
125 20
126 2
127 1
128 20
129 2
130 2
131 1
132 40
133 40
134 10
135 2
136 2
137 1
138 20
139 10
140 2
141 1
142 40
143 40
144 40
145 10
146 40
147 40
148 40
149 2
150 2
151 2
152 1
153 40
154 20
155 2
156 2
157 2
158 2
159 1
160 40
161 20
162 2
163 2
164 2
165 2
166 1
167 40
168 10
169 2
170 2
171 2
172 40
173 2
174 2
175 40
176 20
177 40
178 20
179 1
180 40
181 40
182 2
183 2
184 1
185 40
186 20
187 2
188 40
189 40
190 2
191 2
192 40
193 40
194 10
195 2
196 1
197 40
198 10
199 2
200 1
201 40
202 2
203 2
204 2
205 40
206 20
207 10
208 2
209 40
210 40
211 10
212 2
213 2
214 40
215 20
216 10
217 2
218 2
219 1
220 40
221 40
222 10
223 2
224 1
225 20
226 2
227 2
228 2
229 40
230 10
231 2
232 2
233 1
234 40
235 40
236 2
237 1
238 40
239 20
240 10
241 2
242 2
243 2
244 2
245 1
246 40
247 20
248 10
249 2
250 40
251 40
252 20
253 2
254 2
255 2
256 40
257 40
258 2
259 1
260 40
261 10
262 40
263 40
264 40
265 10
266 2
267 1
268 20
269 10
270 2
271 2
272 1
273 40
274 10
275 2
276 2
277 2
278 2
279 40
280 10
281 2
282 2
283 2
284 40
285 2
286 2
287 40
288 40
289 40
290 10
291 1
292 40
293 20
294 10
295 2
296 2
297 2
298 2
299 40
300 20
301 10
302 2
303 2
304 40
305 10
306 2
307 1
308 40
309 40
310 10
311 1
312 40
313 40
314 20
315 1
316 40
317 40
318 2
319 2
320 2
321 40
322 40
323 2
324 2
325 2
326 1
327 40
328 10
329 2
330 2
331 2
332 1
333 40
334 20
335 1
336 40
337 40
338 2
339 2
340 2
341 2
342 1
343 20
344 10
345 1
346 40
347 2
348 2
349 2
350 40
351 20
352 2
353 2
354 1
355 40
356 10
357 20
358 10
359 2
360 2
361 2
362 40
363 10
364 2
365 2
366 2
367 1
368 40
369 10
370 2
371 2
372 2
373 2
374 40
375 1
376 40
377 20
378 2
379 2
380 2
381 2
382 40
383 10
384 2
385 1
386 40
387 2
388 20
389 10
390 2
391 2
392 1
393 40
394 40
395 2
396 2
397 2
398 40
399 20
400 2
401 2
402 2
403 40
404 2
405 2
406 2
407 2
408 1
409 40
410 20
411 2
412 40
413 20
414 10
415 2
416 40
417 2
418 1
419 20
420 10
421 2
422 2
423 1
424 20
425 2
426 2
427 2
DEPOT_SECTION
1
-1
EOF