SDVRP instances/custom_instances/p03_1_split0.sol
426 -4 3 1 2 392 393 394 396 395 78 75 79 77 76 -5 7 6 8 416 417 415 337 340 339 338 335 336 341 94 95 98 97 96 -10 15 14 9 12 13 11 31 32 222 219 220 223 221 -24 23 175 174 205 204 207 206 183 181 369 370 310 309 -33 34 35 287 288 289 290 201 203 200 202 -40 36 37 38 39 327 326 328 330 331 329 188 187 190 189 413 236 -46 44 43 47 45 42 41 90 93 91 92 261 -53 158 154 157 156 153 155 152 61 60 62 385 -68 66 64 65 63 67 272 274 273 277 276 275 353 350 349 351 352 -74 71 70 73 72 69 141 142 146 145 -80 255 256 258 257 302 298 300 301 299 -84 83 81 82 241 242 243 244 238 237 239 240 423 425 424 426 312 314 313 -106 107 105 104 345 346 347 348 16 17 18 176 178 177 -114 116 117 115 151 150 147 148 149 57 56 58 59 311 -118 121 120 122 401 400 398 397 399 419 421 420 418 422 100 99 101 199 -119 374 373 279 280 278 282 281 88 89 86 85 87 271 269 306 305 -131 134 135 136 133 132 316 315 318 317 319 -144 143 173 171 172 249 250 -164 165 161 159 163 162 160 168 166 167 169 170 128 130 127 129 356 358 360 359 357 -195 191 193 194 192 379 375 380 376 378 377 -198 197 196 110 109 108 111 113 112 334 333 332 -212 208 209 210 211 286 355 354 -218 216 214 217 215 213 367 307 308 -225 227 226 224 54 55 414 411 412 233 234 235 -245 246 248 247 102 103 251 254 253 252 283 285 284 -260 259 229 231 228 232 230 263 264 262 266 265 -270 267 268 19 22 20 21 402 406 405 403 404 407 123 126 124 125 386 -291 294 296 292 297 295 293 185 184 186 381 384 382 383 -304 303 320 322 324 325 321 323 409 410 408 -344 343 342 30 28 26 29 27 25 138 139 137 140 366 361 362 363 365 364 -368 372 371 182 180 179 52 49 50 51 48 391 389 390 388 387 0 





OBJ=
2710.977
BEST_KNOWN=
0.000